r = [
0,10,11,10,13,12,13,17,12,1,14,0
];
p = [
0,19,11,29,20,12,14,9,22,7,27,0
];
e = [
0,14,6,10,15,20,2,10,10,3,20,0
];
d = [
0,186,177,153,136,194,188,161,153,140,205,219
];
d_bar = [
0,196,183,168,146,200,195,166,164,144,219,219
];
w = [
0,1.4,1,0.666666667,1.5,3.333333333,0.285714286,2,0.909090909,0.75,1.428571429,0
];
